problems/csplib-prob010/SocialGolfersProblem-models/noch/O0/minion/model_3-ord12-7-7-3-solution000001.solution
language Essence 1.3

letting Golfers be new type enum
        {Golfers_1, Golfers_2, Golfers_3, Golfers_4, Golfers_5, Golfers_6, Golfers_7, Golfers_8, Golfers_9, Golfers_10,
         Golfers_11, Golfers_12, Golfers_13, Golfers_14, Golfers_15, Golfers_16, Golfers_17, Golfers_18, Golfers_19,
         Golfers_20, Golfers_21}
letting sched be
        {partition({Golfers_1, Golfers_10, Golfers_6}, {Golfers_11, Golfers_18, Golfers_5},
                   {Golfers_12, Golfers_19, Golfers_9}, {Golfers_13, Golfers_17, Golfers_21},
                   {Golfers_14, Golfers_2, Golfers_7}, {Golfers_15, Golfers_16, Golfers_20},
                   {Golfers_3, Golfers_4, Golfers_8}),
         partition({Golfers_1, Golfers_11, Golfers_17}, {Golfers_10, Golfers_15, Golfers_3},
                   {Golfers_12, Golfers_21, Golfers_4}, {Golfers_13, Golfers_2, Golfers_9},
                   {Golfers_14, Golfers_20, Golfers_6}, {Golfers_16, Golfers_5, Golfers_7},
                   {Golfers_18, Golfers_19, Golfers_8}),
         partition({Golfers_1, Golfers_12, Golfers_15}, {Golfers_10, Golfers_21, Golfers_5},
                   {Golfers_11, Golfers_16, Golfers_2}, {Golfers_13, Golfers_19, Golfers_3},
                   {Golfers_14, Golfers_17, Golfers_8}, {Golfers_18, Golfers_6, Golfers_7},
                   {Golfers_20, Golfers_4, Golfers_9}),
         partition({Golfers_1, Golfers_13, Golfers_8}, {Golfers_10, Golfers_20, Golfers_7},
                   {Golfers_11, Golfers_21, Golfers_9}, {Golfers_12, Golfers_14, Golfers_18},
                   {Golfers_15, Golfers_2, Golfers_6}, {Golfers_16, Golfers_19, Golfers_4},
                   {Golfers_17, Golfers_3, Golfers_5}),
         partition({Golfers_1, Golfers_2, Golfers_3}, {Golfers_10, Golfers_11, Golfers_12},
                   {Golfers_13, Golfers_14, Golfers_15}, {Golfers_16, Golfers_17, Golfers_18},
                   {Golfers_19, Golfers_20, Golfers_21}, {Golfers_4, Golfers_5, Golfers_6},
                   {Golfers_7, Golfers_8, Golfers_9}),
         partition({Golfers_1, Golfers_4, Golfers_7}, {Golfers_10, Golfers_13, Golfers_16},
                   {Golfers_11, Golfers_14, Golfers_19}, {Golfers_12, Golfers_17, Golfers_20},
                   {Golfers_15, Golfers_18, Golfers_21}, {Golfers_2, Golfers_5, Golfers_8},
                   {Golfers_3, Golfers_6, Golfers_9}),
         partition({Golfers_1, Golfers_5, Golfers_9}, {Golfers_10, Golfers_2, Golfers_4},
                   {Golfers_11, Golfers_3, Golfers_7}, {Golfers_12, Golfers_6, Golfers_8},
                   {Golfers_13, Golfers_18, Golfers_20}, {Golfers_14, Golfers_16, Golfers_21},
                   {Golfers_15, Golfers_17, Golfers_19})}
$ Visualisation for sched
$ Golfers_1  Golfers_10 Golfers_6 
$ Golfers_11 Golfers_18 Golfers_5 
$ Golfers_12 Golfers_19 Golfers_9 
$ Golfers_13 Golfers_17 Golfers_21
$ Golfers_14 Golfers_2  Golfers_7 
$ Golfers_15 Golfers_16 Golfers_20
$ Golfers_3  Golfers_4  Golfers_8 
$ 
$ Golfers_1  Golfers_11 Golfers_17
$ Golfers_10 Golfers_15 Golfers_3 
$ Golfers_12 Golfers_21 Golfers_4 
$ Golfers_13 Golfers_2  Golfers_9 
$ Golfers_14 Golfers_20 Golfers_6 
$ Golfers_16 Golfers_5  Golfers_7 
$ Golfers_18 Golfers_19 Golfers_8 
$ 
$ Golfers_1  Golfers_12 Golfers_15
$ Golfers_10 Golfers_21 Golfers_5 
$ Golfers_11 Golfers_16 Golfers_2 
$ Golfers_13 Golfers_19 Golfers_3 
$ Golfers_14 Golfers_17 Golfers_8 
$ Golfers_18 Golfers_6  Golfers_7 
$ Golfers_20 Golfers_4  Golfers_9 
$ 
$ Golfers_1  Golfers_13 Golfers_8 
$ Golfers_10 Golfers_20 Golfers_7 
$ Golfers_11 Golfers_21 Golfers_9 
$ Golfers_12 Golfers_14 Golfers_18
$ Golfers_15 Golfers_2  Golfers_6 
$ Golfers_16 Golfers_19 Golfers_4 
$ Golfers_17 Golfers_3  Golfers_5 
$ 
$ Golfers_1  Golfers_2  Golfers_3 
$ Golfers_10 Golfers_11 Golfers_12
$ Golfers_13 Golfers_14 Golfers_15
$ Golfers_16 Golfers_17 Golfers_18
$ Golfers_19 Golfers_20 Golfers_21
$ Golfers_4  Golfers_5  Golfers_6 
$ Golfers_7  Golfers_8  Golfers_9 
$ 
$ Golfers_1  Golfers_4  Golfers_7 
$ Golfers_10 Golfers_13 Golfers_16
$ Golfers_11 Golfers_14 Golfers_19
$ Golfers_12 Golfers_17 Golfers_20
$ Golfers_15 Golfers_18 Golfers_21
$ Golfers_2  Golfers_5  Golfers_8 
$ Golfers_3  Golfers_6  Golfers_9 
$ 
$ Golfers_1  Golfers_5  Golfers_9 
$ Golfers_10 Golfers_2  Golfers_4 
$ Golfers_11 Golfers_3  Golfers_7 
$ Golfers_12 Golfers_6  Golfers_8 
$ Golfers_13 Golfers_18 Golfers_20
$ Golfers_14 Golfers_16 Golfers_21
$ Golfers_15 Golfers_17 Golfers_19
$ 

